c Expression du problème des N-Reines en SAT pour N=6
c L'échiquier possède 36 positions
p cnf 36 392
 1 2 3 4 5 6 0
 -1 -2 0
 -1 -3 0
 -1 -4 0
 -1 -5 0
 -1 -6 0
 -2 -3 0
 -2 -4 0
 -2 -5 0
 -2 -6 0
 -3 -4 0
 -3 -5 0
 -3 -6 0
 -4 -5 0
 -4 -6 0
 -5 -6 0
 7 8 9 10 11 12 0
 -7 -8 0
 -7 -9 0
 -7 -10 0
 -7 -11 0
 -7 -12 0
 -8 -9 0
 -8 -10 0
 -8 -11 0
 -8 -12 0
 -9 -10 0
 -9 -11 0
 -9 -12 0
 -10 -11 0
 -10 -12 0
 -11 -12 0
 13 14 15 16 17 18 0
 -13 -14 0
 -13 -15 0
 -13 -16 0
 -13 -17 0
 -13 -18 0
 -14 -15 0
 -14 -16 0
 -14 -17 0
 -14 -18 0
 -15 -16 0
 -15 -17 0
 -15 -18 0
 -16 -17 0
 -16 -18 0
 -17 -18 0
 19 20 21 22 23 24 0
 -19 -20 0
 -19 -21 0
 -19 -22 0
 -19 -23 0
 -19 -24 0
 -20 -21 0
 -20 -22 0
 -20 -23 0
 -20 -24 0
 -21 -22 0
 -21 -23 0
 -21 -24 0
 -22 -23 0
 -22 -24 0
 -23 -24 0
 25 26 27 28 29 30 0
 -25 -26 0
 -25 -27 0
 -25 -28 0
 -25 -29 0
 -25 -30 0
 -26 -27 0
 -26 -28 0
 -26 -29 0
 -26 -30 0
 -27 -28 0
 -27 -29 0
 -27 -30 0
 -28 -29 0
 -28 -30 0
 -29 -30 0
 31 32 33 34 35 36 0
 -31 -32 0
 -31 -33 0
 -31 -34 0
 -31 -35 0
 -31 -36 0
 -32 -33 0
 -32 -34 0
 -32 -35 0
 -32 -36 0
 -33 -34 0
 -33 -35 0
 -33 -36 0
 -34 -35 0
 -34 -36 0
 -35 -36 0
 31 31 31 31 31 31 0
 -31 -31 0
 -31 -31 0
 -31 -31 0
 -31 -31 0
 -31 -31 0
 -31 -31 0
 -31 -31 0
 -31 -31 0
 -31 -31 0
 -31 -31 0
 -31 -31 0
 -31 -31 0
 -31 -31 0
 -31 -31 0
 -31 -31 0
 -31 -31 0
 -31 -31 0
 -31 -31 0
 -31 -31 0
 -31 -31 0
 -31 -31 0
 -31 -31 0
 -31 -31 0
 -31 -31 0
 -31 -31 0
 -31 -31 0
 -31 -31 0
 -31 -31 0
 -31 -31 0
 -31 -31 0
 32 32 32 32 32 32 0
 -32 -32 0
 -32 -32 0
 -32 -32 0
 -32 -32 0
 -32 -32 0
 -32 -32 0
 -32 -32 0
 -32 -32 0
 -32 -32 0
 -32 -32 0
 -32 -32 0
 -32 -32 0
 -32 -32 0
 -32 -32 0
 -32 -32 0
 -32 -32 0
 -32 -32 0
 -32 -32 0
 -32 -32 0
 -32 -32 0
 -32 -32 0
 -32 -32 0
 -32 -32 0
 -32 -32 0
 -32 -32 0
 -32 -32 0
 -32 -32 0
 -32 -32 0
 -32 -32 0
 -32 -32 0
 33 33 33 33 33 33 0
 -33 -33 0
 -33 -33 0
 -33 -33 0
 -33 -33 0
 -33 -33 0
 -33 -33 0
 -33 -33 0
 -33 -33 0
 -33 -33 0
 -33 -33 0
 -33 -33 0
 -33 -33 0
 -33 -33 0
 -33 -33 0
 -33 -33 0
 -33 -33 0
 -33 -33 0
 -33 -33 0
 -33 -33 0
 -33 -33 0
 -33 -33 0
 -33 -33 0
 -33 -33 0
 -33 -33 0
 -33 -33 0
 -33 -33 0
 -33 -33 0
 -33 -33 0
 -33 -33 0
 -33 -33 0
 34 34 34 34 34 34 0
 -34 -34 0
 -34 -34 0
 -34 -34 0
 -34 -34 0
 -34 -34 0
 -34 -34 0
 -34 -34 0
 -34 -34 0
 -34 -34 0
 -34 -34 0
 -34 -34 0
 -34 -34 0
 -34 -34 0
 -34 -34 0
 -34 -34 0
 -34 -34 0
 -34 -34 0
 -34 -34 0
 -34 -34 0
 -34 -34 0
 -34 -34 0
 -34 -34 0
 -34 -34 0
 -34 -34 0
 -34 -34 0
 -34 -34 0
 -34 -34 0
 -34 -34 0
 -34 -34 0
 -34 -34 0
 35 35 35 35 35 35 0
 -35 -35 0
 -35 -35 0
 -35 -35 0
 -35 -35 0
 -35 -35 0
 -35 -35 0
 -35 -35 0
 -35 -35 0
 -35 -35 0
 -35 -35 0
 -35 -35 0
 -35 -35 0
 -35 -35 0
 -35 -35 0
 -35 -35 0
 -35 -35 0
 -35 -35 0
 -35 -35 0
 -35 -35 0
 -35 -35 0
 -35 -35 0
 -35 -35 0
 -35 -35 0
 -35 -35 0
 -35 -35 0
 -35 -35 0
 -35 -35 0
 -35 -35 0
 -35 -35 0
 -35 -35 0
 36 36 36 36 36 36 0
 -36 -36 0
 -36 -36 0
 -36 -36 0
 -36 -36 0
 -36 -36 0
 -36 -36 0
 -36 -36 0
 -36 -36 0
 -36 -36 0
 -36 -36 0
 -36 -36 0
 -36 -36 0
 -36 -36 0
 -36 -36 0
 -36 -36 0
 -36 -36 0
 -36 -36 0
 -36 -36 0
 -36 -36 0
 -36 -36 0
 -36 -36 0
 -36 -36 0
 -36 -36 0
 -36 -36 0
 -36 -36 0
 -36 -36 0
 -36 -36 0
 -36 -36 0
 -36 -36 0
 -36 -36 0
 -25 -32 0
 -19 -26 0
 -19 -33 0
 -26 -33 0
 -13 -20 0
 -13 -27 0
 -13 -34 0
 -20 -27 0
 -20 -34 0
 -27 -34 0
 -7 -14 0
 -7 -21 0
 -7 -28 0
 -7 -35 0
 -14 -21 0
 -14 -28 0
 -14 -35 0
 -21 -28 0
 -21 -35 0
 -28 -35 0
 -1 -8 0
 -1 -15 0
 -1 -22 0
 -1 -29 0
 -1 -36 0
 -8 -15 0
 -8 -22 0
 -8 -29 0
 -8 -36 0
 -15 -22 0
 -15 -29 0
 -15 -36 0
 -22 -29 0
 -22 -36 0
 -29 -36 0
 -2 -9 0
 -2 -16 0
 -2 -23 0
 -2 -30 0
 -9 -16 0
 -9 -23 0
 -9 -30 0
 -16 -23 0
 -16 -30 0
 -23 -30 0
 -3 -10 0
 -3 -17 0
 -3 -24 0
 -10 -17 0
 -10 -24 0
 -17 -24 0
 -4 -11 0
 -4 -18 0
 -11 -18 0
 -5 -12 0
 -30 -35 0
 -24 -29 0
 -24 -34 0
 -29 -34 0
 -18 -23 0
 -18 -28 0
 -18 -33 0
 -23 -28 0
 -23 -33 0
 -28 -33 0
 -12 -17 0
 -12 -22 0
 -12 -27 0
 -12 -32 0
 -17 -22 0
 -17 -27 0
 -17 -32 0
 -22 -27 0
 -22 -32 0
 -27 -32 0
 -6 -11 0
 -6 -16 0
 -6 -21 0
 -6 -26 0
 -6 -31 0
 -11 -16 0
 -11 -21 0
 -11 -26 0
 -11 -31 0
 -16 -21 0
 -16 -26 0
 -16 -31 0
 -21 -26 0
 -21 -31 0
 -26 -31 0
 -5 -10 0
 -5 -15 0
 -5 -20 0
 -5 -25 0
 -10 -15 0
 -10 -20 0
 -10 -25 0
 -15 -20 0
 -15 -25 0
 -20 -25 0
 -4 -9 0
 -4 -14 0
 -4 -19 0
 -9 -14 0
 -9 -19 0
 -14 -19 0
 -3 -8 0
 -3 -13 0
 -8 -13 0
 -2 -7 0
